\ File written by HiGHS .lp file handler
min
 obj: -1 COL00004 
st
 ROW00001: +2 COL00001 +1 COL00002 +1.5 COL00003 <= +200
 ROW00002: +1 COL00001 +2 COL00002 +1.5 COL00003 <= +100
 ROW00003: <= +0
 ROW00004: +1 COL00004 -1 COL00005 = +0
 ROW00005: -1 COL00001 +1 COL00006 = +0
 ROW00006: -1 COL00002 +1 COL00007 = +0
 ROW00007: -1 COL00003 +1 COL00008 = +0
 ROW00008: -1 COL00006 +1 COL00009 <= +0
 ROW00009: -1 COL00007 +1 COL00010 <= +0
 ROW00010: -1 COL00008 +1 COL00011 <= +0
 ROW00011: -1 COL00009 +2 COL00012 +1 COL00013 +1.5 COL00014 <= +200
 ROW00012: -1 COL00010 +1 COL00012 +2 COL00013 +1.5 COL00014 <= +100
 ROW00013: +1 COL00005 -1 COL00011 <= +0
 ROW00014: +1.1 COL00004 -1 COL00015 = +0
 ROW00015: +1 COL00005 +1 COL00015 -1 COL00016 = +0
 ROW00016: -1 COL00006 -1 COL00012 +1 COL00017 = +0
 ROW00017: -1 COL00007 -1 COL00013 +1 COL00018 = +0
 ROW00018: -1 COL00008 -1 COL00014 +1 COL00019 = +0
 ROW00019: -1 COL00017 +1 COL00020 <= +0
 ROW00020: -1 COL00018 +1 COL00021 <= +0
 ROW00021: -1 COL00019 +1 COL00022 <= +0
 ROW00022: -1 COL00020 +2 COL00023 +1 COL00024 +1.5 COL00025 <= +200
 ROW00023: -1 COL00021 +1 COL00023 +2 COL00024 +1.5 COL00025 <= +100
 ROW00024: +1 COL00016 -1 COL00022 <= +0
 ROW00025: +1.1 COL00015 -1 COL00026 = +0
 ROW00026: +1 COL00016 +1 COL00026 -1 COL00027 = +0
 ROW00027: -1 COL00017 -1 COL00023 +1 COL00028 = +0
 ROW00028: -1 COL00018 -1 COL00024 +1 COL00029 = +0
 ROW00029: -1 COL00019 -1 COL00025 +1 COL00030 = +0
 ROW00030: -1 COL00028 +1 COL00031 <= +0
 ROW00031: -1 COL00029 +1 COL00032 <= +0
 ROW00032: -1 COL00030 +1 COL00033 <= +0
 ROW00033: -1 COL00031 +2 COL00034 +1 COL00035 +1.5 COL00036 <= +200
 ROW00034: -1 COL00032 +1 COL00034 +2 COL00035 +1.5 COL00036 <= +100
 ROW00035: +1 COL00027 -1 COL00033 <= +0
 ROW00036: +1.1 COL00026 -1 COL00037 = +0
 ROW00037: +1 COL00027 +1 COL00037 -1 COL00038 = +0
 ROW00038: -1 COL00028 -1 COL00034 +1 COL00039 = +0
 ROW00039: -1 COL00029 -1 COL00035 +1 COL00040 = +0
 ROW00040: -1 COL00030 -1 COL00036 +1 COL00041 = +0
 ROW00041: -1 COL00039 +1 COL00042 <= +0
 ROW00042: -1 COL00040 +1 COL00043 <= +0
 ROW00043: -1 COL00041 +1 COL00044 <= +0
 ROW00044: -1 COL00042 +2 COL00045 +1 COL00046 +1.5 COL00047 <= +200
 ROW00045: -1 COL00043 +1 COL00045 +2 COL00046 +1.5 COL00047 <= +100
 ROW00046: +1 COL00038 -1 COL00044 <= +0
 ROW00047: +1.1 COL00037 -1 COL00048 = +0
 ROW00048: +1 COL00038 +1 COL00048 -1 COL00049 = +0
 ROW00049: -1 COL00039 -1 COL00045 +1 COL00050 = +0
 ROW00050: -1 COL00040 -1 COL00046 +1 COL00051 = +0
 ROW00051: -1 COL00041 -1 COL00047 +1 COL00052 = +0
 ROW00052: -1 COL00050 +1 COL00053 <= +0
 ROW00053: -1 COL00051 +1 COL00054 <= +0
 ROW00054: -1 COL00052 +1 COL00055 <= +0
 ROW00055: -1 COL00053 +2 COL00056 +1 COL00057 +1.5 COL00058 <= +200
 ROW00056: -1 COL00054 +1 COL00056 +2 COL00057 +1.5 COL00058 <= +100
 ROW00057: +1 COL00049 -1 COL00055 <= +0
 ROW00058: +1.1 COL00048 -1 COL00059 = +0
 ROW00059: +1 COL00049 +1 COL00059 -1 COL00060 = +0
 ROW00060: -1 COL00050 -1 COL00056 +1 COL00061 = +0
 ROW00061: -1 COL00051 -1 COL00057 +1 COL00062 = +0
 ROW00062: -1 COL00052 -1 COL00058 +1 COL00063 = +0
 ROW00063: -1 COL00061 +1 COL00064 <= +0
 ROW00064: -1 COL00062 +1 COL00065 <= +0
 ROW00065: -1 COL00063 +1 COL00066 <= +0
 ROW00066: -1 COL00064 +2 COL00067 +1 COL00068 +1.5 COL00069 <= +200
 ROW00067: -1 COL00065 +1 COL00067 +2 COL00068 +1.5 COL00069 <= +100
 ROW00068: +1 COL00060 -1 COL00066 <= +0
 ROW00069: +1.1 COL00059 -1 COL00070 = +0
 ROW00070: +1 COL00060 +1 COL00070 -1 COL00071 = +0
 ROW00071: -1 COL00061 -1 COL00067 +1 COL00072 = +0
 ROW00072: -1 COL00062 -1 COL00068 +1 COL00073 = +0
 ROW00073: -1 COL00063 -1 COL00069 +1 COL00074 = +0
 ROW00074: -1 COL00072 +1 COL00075 <= +0
 ROW00075: -1 COL00073 +1 COL00076 <= +0
 ROW00076: -1 COL00074 +1 COL00077 <= +0
 ROW00077: -1 COL00075 +2 COL00078 +1 COL00079 +1.5 COL00080 <= +200
 ROW00078: -1 COL00076 +1 COL00078 +2 COL00079 +1.5 COL00080 <= +100
 ROW00079: +1 COL00071 -1 COL00077 <= +0
 ROW00080: +1.1 COL00070 -1 COL00081 = +0
 ROW00081: +1 COL00071 +1 COL00081 -1 COL00082 = +0
 ROW00082: -1 COL00072 -1 COL00078 +1 COL00083 = +0
 ROW00083: -1 COL00073 -1 COL00079 +1 COL00084 = +0
 ROW00084: -1 COL00074 -1 COL00080 +1 COL00085 = +0
 ROW00085: -1 COL00083 +1 COL00086 <= +0
 ROW00086: -1 COL00084 +1 COL00087 <= +0
 ROW00087: -1 COL00085 +1 COL00088 <= +0
 ROW00088: -1 COL00086 +2 COL00089 +1 COL00090 +1.5 COL00091 <= +200
 ROW00089: -1 COL00087 +1 COL00089 +2 COL00090 +1.5 COL00091 <= +100
 ROW00090: +1 COL00082 -1 COL00088 <= +0
 ROW00091: +1.1 COL00081 -1 COL00092 = +0
 ROW00092: +1 COL00082 +1 COL00092 -1 COL00093 = +0
 ROW00093: -1 COL00083 -1 COL00089 +1 COL00094 = +0
 ROW00094: -1 COL00084 -1 COL00090 +1 COL00095 = +0
 ROW00095: -1 COL00085 -1 COL00091 +1 COL00096 = +0
 ROW00096: -1 COL00094 +1 COL00097 <= +0
 ROW00097: -1 COL00095 +1 COL00098 <= +0
 ROW00098: -1 COL00096 +1 COL00099 <= +0
 ROW00099: -1 COL00097 +2 COL00100 +1 COL00101 +1.5 COL00102 <= +200
 ROW00100: -1 COL00098 +1 COL00100 +2 COL00101 +1.5 COL00102 <= +100
 ROW00101: +1 COL00093 -1 COL00099 <= +0
 ROW00102: +1.1 COL00092 -1 COL00103 = +0
 ROW00103: -0.8 COL00100 +0.1 COL00101 +0.15 COL00102 <= +0
 ROW00104: +0.1 COL00100 -0.8 COL00101 +0.15 COL00102 <= +0
 ROW00105: -1 COL00102 +1 COL00103 <= +0
bounds
end
